%chk=E:\hetanjin\GithubFiles\DBGCWebapp\demoForLocal\python\Gjfs\apple_014.chk
# hf/3-21g geom=connectivity

Title Card Required

0 1
 C                 -0.18581081   -0.13513513    0.00000000
 H                  0.17086203    0.36926306   -0.87365150
 C                 -1.72581081   -0.13511616    0.00000000
 C                  0.32750490   -1.58706729    0.00000000
 C                  0.32753141    0.59082114    1.25740497
 C                 -0.18539342   -2.31286740    1.25767623
 H                  0.17079316   -3.32184264    1.25738946
 H                  0.17205537   -1.80869063    2.13113840
 H                 -1.25539309   -2.31235839    1.25834044
 C                  1.86750481   -1.58708552   -0.00054315
 H                  2.22403769   -2.53450419   -0.34721615
 H                  2.22395203   -0.81326365   -0.64788008
 H                  2.22452419   -1.41350139    0.99308943
 C                 -2.23915266   -0.86350986    1.25599473
 H                 -3.14669412   -0.40452717    1.58856560
 H                 -2.42412974   -1.89104948    1.02180292
 H                 -1.50330651   -0.80104443    2.03028700
 C                 -2.23912580    1.31681352    0.00281518
 H                 -1.63718414    1.90919856   -0.65418269
 H                 -3.25579924    1.33632545   -0.33019293
 H                 -2.18104777    1.71372443    0.99477722
 C                 -0.18548457    2.04285921    1.25722145
 H                 -0.34809860    2.36347840    0.24942186
 H                 -1.10517171    2.09673716    1.80143900
 H                  0.54083777    2.67741019    1.72057975
 C                 -0.18611059   -0.13492363    2.51480961
 H                  0.62408555   -0.28098418    3.19829226
 H                 -0.94531560    0.45629936    2.98274457
 H                 -0.59398271   -1.08433712    2.23704288
 C                  1.86753136    0.59048376    1.25758833
 H                  2.22394620   -0.28712429    1.75525546
 H                  2.22431952    0.59821522    0.24885525
 H                  2.22432788    1.46012597    1.76878170
 C                 -2.23915333   -0.85863320   -1.25880997
 H                 -3.26754928   -0.61010704   -1.41861147
 H                 -1.66234174   -0.55238106   -2.10639361
 H                 -2.14424186   -1.91611473   -1.12605216
 C                 -0.18628121   -2.31318049   -1.25713302
 H                 -1.12616474   -2.77710143   -1.04196721
 H                 -0.31065968   -1.60685125   -2.05119158
 H                  0.52099971   -3.06009585   -1.55170246

 1 2 1.0 3 1.0 4 1.0 5 1.0
 2
 3 14 1.0 18 1.0 34 1.0
 4 6 1.0 10 1.0 38 1.0
 5 22 1.0 26 1.0 30 1.0
 6 7 1.0 8 1.0 9 1.0
 7
 8
 9
 10 11 1.0 12 1.0 13 1.0
 11
 12
 13
 14 15 1.0 16 1.0 17 1.0
 15
 16
 17
 18 19 1.0 20 1.0 21 1.0
 19
 20
 21
 22 23 1.0 24 1.0 25 1.0
 23
 24
 25
 26 27 1.0 28 1.0 29 1.0
 27
 28
 29
 30 31 1.0 32 1.0 33 1.0
 31
 32
 33
 34 35 1.0 36 1.0 37 1.0
 35
 36
 37
 38 39 1.0 40 1.0 41 1.0
 39
 40
 41

