%chk=F:\ResearchData\newGroupAdditivityFrog2\Template21\CnH2n+2_energy\apple_001.chk
# hf/3-21g geom=connectivity

Title Card Required

0 1
 C                 -4.84797297   -1.18243241    0.00000000
 H                 -4.49131854   -2.19124242    0.00000000
 H                 -4.49130013   -0.67803422   -0.87365150
 H                 -5.91797297   -1.18241923    0.00000000
 C                 -4.33463075   -0.45647614    1.25740497
 H                 -4.69128517    0.55233386    1.25740497
 H                 -4.69130359   -0.96087523    2.13105595
 C                 -2.79463075   -0.45649477    1.25740517
 H                 -2.43797660   -1.46530487    1.25740666
 H                 -2.43795768    0.04790236    0.38375315
 C                 -2.28128926    0.26946419    2.51480889
 H                 -2.63955858   -0.23380258    3.38845964
 H                 -2.63634597    1.27883715    2.51382985
 C                 -0.74129186    0.26700839    2.51621725
 H                 -0.38302385    0.76984792    1.64231998
 H                 -0.38623538   -0.74236405    2.51768917
 C                 -0.22794907    0.99358120    3.77326583
 H                 -0.58623849    0.49075595    4.64716254
 H                 -0.58298473    2.00296095    3.77178146
 C                  1.31204826    0.99109401    3.77469236
 H                  1.67033682    1.49391034    2.90079017
 H                  1.66708414   -0.01828565    3.77618682
 C                  1.82539108    1.71767920    5.03173378
 H                  1.46710740    1.21485850    5.90563546
 H                  1.47034968    2.72705692    5.03024298
 C                  3.36538843    1.71520077    5.03315524
 H                  3.72367126    2.21802269    4.15925391
 H                  3.72206168    2.22003442    5.90655502
 H                  3.72043006    0.70582312    5.03464443

 1 2 1.0 3 1.0 4 1.0 5 1.0
 2
 3
 4
 5 6 1.0 7 1.0 8 1.0
 6
 7
 8 9 1.0 10 1.0 11 1.0
 9
 10
 11 12 1.0 13 1.0 14 1.0
 12
 13
 14 15 1.0 16 1.0 17 1.0
 15
 16
 17 18 1.0 19 1.0 20 1.0
 18
 19
 20 21 1.0 22 1.0 23 1.0
 21
 22
 23 24 1.0 25 1.0 26 1.0
 24
 25
 26 27 1.0 28 1.0 29 1.0
 27
 28
 29

