%chk=E:\hetanjin\GithubFiles\DBGCWebapp\demoForLocal\python\Gjfs\apple_017.chk
# hf/3-21g geom=connectivity

Title Card Required

0 1
 C                 -4.74662162   -1.18243241    0.00000000
 H                 -4.38996719   -2.19124242    0.00000000
 H                 -4.38994878   -0.67803422   -0.87365150
 H                 -5.81662162   -1.18241923    0.00000000
 C                 -4.23327940   -0.45647614    1.25740497
 C                 -2.69328200   -0.45893249    1.25881364
 C                 -2.17993952    0.26749282    2.51594759
 C                 -0.63994234    0.26493341    2.51741591
 C                 -0.12659983    0.99136944    3.77454365
 H                 -0.48493808    0.48848361    4.64838548
 H                  0.94339820    0.98958961    3.77556473
 H                 -0.48158675    2.00076644    3.77313924
 C                 -4.74891905   -1.18080641    2.51480761
 H                 -4.12945809   -2.02956674    2.71673340
 H                 -4.71987144   -0.51148299    3.34911116
 H                 -5.75569662   -1.50463773    2.35222779
 C                 -4.74429508    0.99626644    1.25599807
 H                 -4.16057920    1.57902295    0.57440389
 H                 -5.77005238    1.01324149    0.95196878
 H                 -4.65730984    1.40590754    2.24064407
 C                 -2.18226649   -1.91167450    1.26076201
 H                 -1.18430020   -1.93923617    0.87578976
 H                 -2.18918652   -2.29085608    2.26129859
 H                 -2.81825670   -2.51430355    0.64655139
 C                 -2.17764325    0.26492778    0.00114001
 H                 -2.26117677    1.32271939    0.13897706
 H                 -1.15250214    0.00661341   -0.16396420
 H                 -2.76098253   -0.03160781   -0.84543068
 C                 -2.69567660   -0.45629898    3.77362031
 H                 -3.60866115   -0.00189812    4.09747070
 H                 -2.87154669   -1.48673623    3.54521544
 H                 -1.96515858   -0.38315666    4.55201200
 C                 -2.69085736    1.72026910    2.51393994
 H                 -2.84287029    2.04349513    1.50531860
 H                 -3.61599808    1.77373173    3.04887583
 H                 -1.96869192    2.35297655    2.98623048
 C                 -0.12902418   -1.18784274    2.51943613
 H                 -0.02190666   -1.52965370    1.51117470
 H                  0.81902350   -1.23182276    3.01357312
 H                 -0.82920096   -1.81144777    3.03496426
 C                 -0.12420649    0.98871406    1.25973625
 H                 -0.02242734    0.28527026    0.45991889
 H                 -0.81898927    1.75186271    0.97728091
 H                  0.82713297    1.43189556    1.46816700

 1 2 1.0 3 1.0 4 1.0 5 1.0
 2
 3
 4
 5 6 1.0 13 1.0 17 1.0
 6 7 1.0 21 1.0 25 1.0
 7 8 1.0 29 1.0 33 1.0
 8 9 1.0 37 1.0 41 1.0
 9 10 1.0 11 1.0 12 1.0
 10
 11
 12
 13 14 1.0 15 1.0 16 1.0
 14
 15
 16
 17 18 1.0 19 1.0 20 1.0
 18
 19
 20
 21 22 1.0 23 1.0 24 1.0
 22
 23
 24
 25 26 1.0 27 1.0 28 1.0
 26
 27
 28
 29 30 1.0 31 1.0 32 1.0
 30
 31
 32
 33 34 1.0 35 1.0 36 1.0
 34
 35
 36
 37 38 1.0 39 1.0 40 1.0
 38
 39
 40
 41 42 1.0 43 1.0 44 1.0
 42
 43
 44

