%chk=E:\hetanjin\GithubFiles\DBGCWebapp\demoForLocal\python\Gjfs\apple_018.chk
# hf/3-21g geom=connectivity

Title Card Required

0 1
 C                 -6.16554053    0.87830309   -0.01149762
 H                 -5.80886769    1.38270128    0.86215389
 H                 -5.80886769    1.38270128   -0.88514912
 H                 -7.23554053    0.87831628   -0.01149762
 C                 -5.65222482   -0.57362906   -0.01149762
 H                 -6.00889728   -1.07802711    0.86215412
 H                 -6.00889811   -1.07802794   -0.88514854
 C                 -4.11222482   -0.57364726   -0.01149885
 H                 -3.75555323   -0.07094447   -0.88612750
 H                 -3.75555128   -0.06755457    0.86117186
 C                 -3.59890910   -2.02557668   -0.00868206
 H                 -3.95594868   -2.53179805   -0.88112842
 H                 -3.95521518   -2.52814945    0.86617027
 C                 -2.05890924   -2.02559618   -0.00932800
 H                 -1.70187051   -1.51935705    0.86310842
 H                 -1.70260294   -1.52304077   -0.88419020
 C                 -1.54559351   -3.47752554   -0.00648266
 H                 -1.90263611   -3.98376513   -0.87891721
 H                 -1.90189655   -3.98008004    0.86838140
 C                 -0.00559365   -3.47754505   -0.00713393
 H                  0.35144810   -2.97131079    0.86530407
 H                  0.35070963   -2.97498477   -0.88199457
 C                  0.50772208   -4.92947443   -0.00429846
 H                  0.15068058   -5.43570770   -0.87673714
 H                  0.15141793   -5.43203527    0.87056150
 C                  2.04772194   -4.92949394   -0.00494779
 H                  2.40476259   -4.42326276    0.86749245
 H                  2.40402632   -4.42693057   -0.87980620
 C                  2.56103766   -6.38142333   -0.00211680
 H                  2.20399732   -6.88765350   -0.87455775
 H                  2.20473236   -6.88398727    0.87274091
 C                  4.10103753   -6.38144283   -0.00276409
 H                  4.45807702   -5.87521328    0.86967757
 H                  4.45734306   -5.87887782   -0.87762109
 C                  4.61435325   -7.83337223    0.00006486
 H                  4.25731343   -8.33960099   -0.87237712
 H                  4.25804742   -8.33593759    0.87492154
 C                  6.15435311   -7.83339173   -0.00058150
 H                  6.51139208   -7.32716292    0.87186081
 H                  6.51065917   -7.33082597   -0.87543786
 C                  6.66766883   -9.28532112    0.00224652
 H                  6.31063069   -9.79154874   -0.87019681
 H                  6.31136133   -9.78788764    0.87710186
 C                  8.20766870   -9.28534062    0.00160312
 H                  8.56470599   -8.77911418    0.87404748
 H                  8.56432313  -10.29414871    0.00356599
 H                  8.56397644   -8.78277249   -0.87325120

 1 2 1.0 3 1.0 4 1.0 5 1.0
 2
 3
 4
 5 6 1.0 7 1.0 8 1.0
 6
 7
 8 9 1.0 10 1.0 11 1.0
 9
 10
 11 12 1.0 13 1.0 14 1.0
 12
 13
 14 15 1.0 16 1.0 17 1.0
 15
 16
 17 18 1.0 19 1.0 20 1.0
 18
 19
 20 21 1.0 22 1.0 23 1.0
 21
 22
 23 24 1.0 25 1.0 26 1.0
 24
 25
 26 27 1.0 28 1.0 29 1.0
 27
 28
 29 30 1.0 31 1.0 32 1.0
 30
 31
 32 33 1.0 34 1.0 35 1.0
 33
 34
 35 36 1.0 37 1.0 38 1.0
 36
 37
 38 39 1.0 40 1.0 41 1.0
 39
 40
 41 42 1.0 43 1.0 44 1.0
 42
 43
 44 45 1.0 46 1.0 47 1.0
 45
 46
 47

