%chk=E:\hetanjin\GithubFiles\DBGCWebapp\demoForLocal\python\Gjfs\apple_005.chk
# hf/3-21g geom=connectivity

Title Card Required

0 1
 C                 -4.71283783    0.37162162    0.00000000
 H                 -4.35618341   -0.63718839    0.00000000
 H                 -4.35616499    0.87601981   -0.87365150
 H                 -5.78283783    0.37163480    0.00000000
 C                 -4.19949561    1.09757789    1.25740497
 H                 -4.55632787    0.59329208    2.13105625
 C                 -2.65949564    1.09731512    1.25754524
 H                 -2.30266367    1.60156831    0.38387502
 H                 -2.30300094    0.08844868    1.25768017
 C                 -2.14615341    1.82331810    2.51492324
 H                 -2.50299178    1.31906853    3.38859295
 C                 -0.60615345    1.82304687    2.51506840
 H                 -0.24966428    0.81417847    2.51520698
 C                 -0.09281122    2.54905017    3.77244622
 H                 -0.44964814    2.04479981    4.64611605
 H                  0.97718876    2.54886324    3.77254620
 H                 -0.44930159    3.55791815    3.77230867
 C                 -0.09257422    2.54878849    1.25763631
 H                 -0.12135453    1.87987529    0.42299458
 H                 -0.71340583    3.39677647    1.05667736
 H                  0.91387512    2.87396256    1.41956702
 C                 -4.71258195    2.54959111    1.25726452
 H                 -4.63185040    2.95643697    2.24360060
 H                 -4.12608600    3.13540903    0.58069977
 H                 -5.73664557    2.56567261    0.94753061
 C                 -2.65923095    3.27533442    2.51472437
 H                 -1.94587554    3.90565136    3.00331890
 H                 -2.79541644    3.60577742    1.50618040
 H                 -3.59300909    3.32340031    3.03496283

 1 2 1.0 3 1.0 4 1.0 5 1.0
 2
 3
 4
 5 6 1.0 7 1.0 22 1.0
 6
 7 8 1.0 9 1.0 10 1.0
 8
 9
 10 11 1.0 12 1.0 26 1.0
 11
 12 13 1.0 14 1.0 18 1.0
 13
 14 15 1.0 16 1.0 17 1.0
 15
 16
 17
 18 19 1.0 20 1.0 21 1.0
 19
 20
 21
 22 23 1.0 24 1.0 25 1.0
 23
 24
 25
 26 27 1.0 28 1.0 29 1.0
 27
 28
 29

