%chk=E:\hetanjin\GithubFiles\DBGCWebapp\demoForLocal\python\Gjfs\apple_010.chk
# hf/3-21g geom=connectivity

Title Card Required

0 1
 C                 -2.28040540   -0.94594593    0.00000000
 C                 -3.82040540   -0.94592696    0.00000000
 H                 -4.17705932    0.06288322    0.00000013
 H                 -4.17707797   -1.45032557   -0.87365137
 H                 -4.17707847   -1.45032537    0.87365128
 C                 -1.76708969   -2.39787808    0.00000000
 H                 -2.12376190   -2.90227605   -0.87365189
 H                 -0.69708969   -2.39789073    0.00000116
 H                 -2.12376323   -2.90227706    0.87365077
 C                 -1.76706318   -0.21998966   -1.25740497
 H                 -2.12387739    0.78876384   -1.25750282
 H                 -0.69706320   -0.21983372   -1.25730700
 H                 -2.12357630   -0.72450114   -2.13105625
 C                 -1.76706318   -0.21998966    1.25740497
 H                 -2.12211953    0.78938343    1.25642745
 H                 -2.12533229   -0.72325809    2.13105486
 C                 -0.22706579   -0.22244601    1.25881364
 H                  0.13119729    0.27544813    0.38208735
 H                  0.12798516   -1.23179601    1.26598291
 C                  0.28629209    0.51121162    2.51173430
 C                 -0.23091781   -0.20426347    3.77355415
 H                  0.38576526    0.05502053    4.60864325
 H                 -1.23892299    0.09801852    3.96707714
 H                 -0.19895566   -1.26294509    3.62166065
 C                  1.82628471    0.50708613    2.51412231
 H                  2.18560199    0.98119462    1.62473362
 H                  2.18304971    1.03931050    3.37106802
 H                  2.18019685   -0.50211317    2.54822447
 C                 -0.22313301    1.96446956    2.50044656
 H                  0.33090804    2.54215355    3.21053088
 H                 -0.09314893    2.38039878    1.52320196
 H                 -1.26110924    1.98058709    2.75976409

 1 2 1.0 6 1.0 10 1.0 14 1.0
 2 3 1.0 4 1.0 5 1.0
 3
 4
 5
 6 7 1.0 8 1.0 9 1.0
 7
 8
 9
 10 11 1.0 12 1.0 13 1.0
 11
 12
 13
 14 15 1.0 16 1.0 17 1.0
 15
 16
 17 18 1.0 19 1.0 20 1.0
 18
 19
 20 21 1.0 25 1.0 29 1.0
 21 22 1.0 23 1.0 24 1.0
 22
 23
 24
 25 26 1.0 27 1.0 28 1.0
 26
 27
 28
 29 30 1.0 31 1.0 32 1.0
 30
 31
 32

