%chk=E:\hetanjin\GithubFiles\DBGCWebapp\demoForLocal\python\Gjfs\apple_011.chk
# hf/3-21g geom=connectivity

Title Card Required

0 1
 C                 -5.15202702   -0.20270270    0.00000000
 H                 -4.79537260   -1.21151270    0.00000000
 H                 -4.79535418    0.30169549   -0.87365150
 H                 -6.22202702   -0.20268952    0.00000000
 C                 -4.63868480    0.52325357    1.25740497
 H                 -4.99374115    1.53262666    1.25642745
 H                 -4.99695391    0.01998514    2.13105486
 C                 -3.09868741    0.52079722    1.25881364
 H                 -2.74041892    1.02373910    0.38497547
 H                 -2.74363117   -0.48857547    1.26016738
 C                 -2.58534492    1.24722254    2.51594759
 H                 -2.94368173    0.74432824    3.38978513
 H                 -2.94033330    2.25661905    2.51455266
 C                 -1.04534775    1.24466313    2.51741591
 H                 -0.68701180    1.74754968    1.64357355
 H                 -0.69035915    0.23526671    2.51881957
 C                 -0.53200524    1.97109915    3.77454365
 H                 -0.89034348    1.46821333    4.64838548
 H                 -0.88699216    2.98049616    3.77313924
 C                  1.00799193    1.96853754    3.77601325
 H                  1.36632932    2.47142460    2.90217178
 H                  1.36297908    0.95914061    3.77741602
 C                  1.52133443    2.69497135    5.03314227
 H                  1.16299763    2.19208296    5.90698322
 H                  1.16634607    3.70436785    5.03174052
 C                  3.06133161    2.69241193    5.03461060
 H                  3.41966757    3.19530154    4.16077000
 H                  3.41632020    1.68301551    5.03601073
 C                  3.57467410    3.41884356    6.29174089
 H                  3.21633873    2.91595263    7.16558096
 H                  3.21968430    4.42823956    6.29034177
 C                  5.11467128    3.41628633    6.29320794
 H                  5.47300581    3.91917848    5.41936822
 H                  5.47134431    3.92101329    7.16666947
 H                  5.46966132    2.40689041    6.29460544

 1 2 1.0 3 1.0 4 1.0 5 1.0
 2
 3
 4
 5 6 1.0 7 1.0 8 1.0
 6
 7
 8 9 1.0 10 1.0 11 1.0
 9
 10
 11 12 1.0 13 1.0 14 1.0
 12
 13
 14 15 1.0 16 1.0 17 1.0
 15
 16
 17 18 1.0 19 1.0 20 1.0
 18
 19
 20 21 1.0 22 1.0 23 1.0
 21
 22
 23 24 1.0 25 1.0 26 1.0
 24
 25
 26 27 1.0 28 1.0 29 1.0
 27
 28
 29 30 1.0 31 1.0 32 1.0
 30
 31
 32 33 1.0 34 1.0 35 1.0
 33
 34
 35

