%chk=E:\hetanjin\GithubFiles\DBGCWebapp\demoForLocal\python\Gjfs\apple_012.chk
# hf/3-21g geom=connectivity

Title Card Required

0 1
 C                 -4.81418918   -0.16891892    0.00000000
 H                 -4.45753476   -1.17772892    0.00000000
 H                 -4.45751634    0.33547927   -0.87365150
 H                 -5.88418918   -0.16890573    0.00000000
 C                 -4.30084697    0.55703736    1.25740497
 H                 -4.65750017    1.56584779    1.25740422
 H                 -4.65752110    0.05263972    2.13105626
 C                 -2.76084697    0.55701599    1.25740586
 H                 -2.40417311    1.06141301    0.38375410
 H                 -2.40419411   -0.45179457    1.25740700
 C                 -2.24750475    1.28297291    2.51481046
 H                 -2.60577407    0.77970508    3.38846061
 H                 -2.60256095    2.29234605    2.51383295
 C                 -0.70750735    1.28051633    2.51621837
 H                 -0.34923933    1.78335685    1.64232167
 H                 -0.35245137    0.27114371    2.51768884
 C                 -0.19416383    2.00708721    3.77326777
 H                 -0.55245325    1.50426098    4.64716391
 H                 -0.54919898    3.01646714    3.77178485
 C                  1.34583350    2.00459924    3.77469385
 H                  1.70412206    2.50741656    2.90079223
 H                  1.70086887    0.99521940    3.77618686
 C                  1.85917705    2.73118250    5.03173608
 H                  1.50089338    2.22836081    5.90563720
 H                  1.50413616    3.74056040    5.03024673
 C                  3.39917440    2.72870329    5.03315710
 H                  3.75745723    3.23152619    4.15925633
 H                  3.75421552    1.71932547    5.03464484
 C                  3.91251795    3.45528437    6.29020059
 H                  3.55423714    2.95245912    7.16410084
 H                  3.55747417    4.46466126    6.28871475
 C                  5.45251530    3.45280955    6.29161906
 H                  5.81079526    3.95563600    5.41771917
 H                  5.80755931    2.44343273    6.29310329
 C                  5.96585884    4.17938844    7.54866382
 H                  5.60757948    3.67656067    8.42256319
 H                  7.03585701    4.17767045    7.54964850
 H                  5.61081363    5.18876483    7.54718061

 1 2 1.0 3 1.0 4 1.0 5 1.0
 2
 3
 4
 5 6 1.0 7 1.0 8 1.0
 6
 7
 8 9 1.0 10 1.0 11 1.0
 9
 10
 11 12 1.0 13 1.0 14 1.0
 12
 13
 14 15 1.0 16 1.0 17 1.0
 15
 16
 17 18 1.0 19 1.0 20 1.0
 18
 19
 20 21 1.0 22 1.0 23 1.0
 21
 22
 23 24 1.0 25 1.0 26 1.0
 24
 25
 26 27 1.0 28 1.0 29 1.0
 27
 28
 29 30 1.0 31 1.0 32 1.0
 30
 31
 32 33 1.0 34 1.0 35 1.0
 33
 34
 35 36 1.0 37 1.0 38 1.0
 36
 37
 38

