%chk=E:\hetanjin\GithubFiles\DBGCWebapp\demoForLocal\python\Gjfs\apple_003.chk
# hf/3-21g geom=connectivity

Title Card Required

0 1
 C                 -4.78040540   -0.57432432    0.00000000
 H                 -4.42375098   -1.58313432    0.00000000
 H                 -4.42373256   -0.06992613   -0.87365150
 H                 -5.85040540   -0.57431113    0.00000000
 C                 -4.26706318    0.15163196    1.25740497
 C                 -4.78040726   -0.57432353    2.51480964
 H                 -4.42535078   -1.58369657    2.51383335
 H                 -4.42213957   -0.07105445    3.38845974
 H                 -5.85040545   -0.57261698    2.51578673
 C                 -2.72706318    0.15161059    1.25740586
 H                 -2.37038933    0.65582310    0.38364760
 H                 -2.37039034    0.65619372    2.13095056
 H                 -2.37041032   -0.85719994    1.25762005
 C                 -4.78037713    1.60356473    1.25740389
 H                 -5.85037712    1.60357998    1.25723851
 H                 -4.42383836    2.10791477    2.13113791
 C                 -4.26683836    2.32958863    0.00011823
 H                 -4.62299936    1.82497127   -0.87361552
 H                 -3.19683850    2.32997366    0.00051511
 C                 -4.78069398    3.78132975   -0.00021477
 H                 -4.42461966    4.28591554    0.87357254
 H                 -5.85069380    3.78094495   -0.00071794
 C                 -4.26703053    4.50739779   -1.25742400
 H                 -4.62312683    4.00282664   -2.13121080
 H                 -3.19703070    4.50775953   -1.25693442
 C                 -4.78085454    5.95915011   -1.25773762
 H                 -4.42475693    6.46372083   -0.38395109
 H                 -4.42395980    6.46362550   -2.13125392
 H                 -5.85085437    5.95878862   -1.25822574

 1 2 1.0 3 1.0 4 1.0 5 1.0
 2
 3
 4
 5 6 1.0 10 1.0 14 1.0
 6 7 1.0 8 1.0 9 1.0
 7
 8
 9
 10 11 1.0 12 1.0 13 1.0
 11
 12
 13
 14 15 1.0 16 1.0 17 1.0
 15
 16
 17 18 1.0 19 1.0 20 1.0
 18
 19
 20 21 1.0 22 1.0 23 1.0
 21
 22
 23 24 1.0 25 1.0 26 1.0
 24
 25
 26 27 1.0 28 1.0 29 1.0
 27
 28
 29

