%chk=E:\hetanjin\GithubFiles\DBGCWebapp\demoForLocal\python\Gjfs\apple_028.chk
# hf/3-21g geom=connectivity

Title Card Required

0 1
 C                  4.59459470    1.65540538    0.00000000
 H                  4.95124912    0.64659538    0.00000000
 H                  4.95126754    2.15980357    0.87365150
 H                  4.95126754    2.15980357   -0.87365150
 C                  3.05459470    1.65542436    0.00000000
 C                  2.54125212    0.92703095    1.25599460
 H                  2.89823347    1.42951641    2.13062177
 H                  1.47125219    0.92737097    1.25618355
 H                  2.89759778   -0.08188588    1.25384968
 C                  2.54125291    0.93190702   -1.25881010
 H                  1.47125294    0.93169840   -1.25868263
 H                  2.89771745    1.43814628   -2.13148120
 H                  2.89811597   -0.07682704   -1.26089390
 C                  2.54127971    3.10735404    0.00281556
 C                  3.05438898    3.83078836    1.26176816
 H                  4.12438896    3.83081540    1.26194268
 H                  2.69769596    4.83958278    1.26374771
 H                  2.69759282    3.32461259    2.13434056
 C                  3.05485569    3.83582926   -1.25303617
 H                  2.69833401    3.33319060   -2.12776280
 H                  2.69821253    4.84464133   -1.25107331
 H                  4.12485567    3.83580398   -1.25284434
 C                  1.00127974    3.10737357    0.00253030
 H                  0.64462579    4.11618148    0.00466842
 C                  0.48770501    2.37867110    1.25825069
 H                 -0.40618221    2.85330666    1.60550666
 H                  0.27876175    1.35726462    1.01747796
 H                  1.23370130    2.41913597    2.02424817
 C                  0.48817017    2.38416642   -1.25655269
 H                  0.30127338    1.35612218   -1.02612999
 H                 -0.41825661    2.84576558   -1.58854172
 H                  1.22498275    2.44812364   -2.02980343

 1 2 1.0 3 1.0 4 1.0 5 1.0
 2
 3
 4
 5 6 1.0 10 1.0 14 1.0
 6 7 1.0 8 1.0 9 1.0
 7
 8
 9
 10 11 1.0 12 1.0 13 1.0
 11
 12
 13
 14 15 1.0 19 1.0 23 1.0
 15 16 1.0 17 1.0 18 1.0
 16
 17
 18
 19 20 1.0 21 1.0 22 1.0
 20
 21
 22
 23 24 1.0 25 1.0 29 1.0
 24
 25 26 1.0 27 1.0 28 1.0
 26
 27
 28
 29 30 1.0 31 1.0 32 1.0
 30
 31
 32

