%chk=F:\ResearchData\newGroupAdditivityFrog2\Template21\CnH2n+2_energy\apple_002.chk
# hf/3-21g geom=connectivity

Title Card Required

0 1
 C                 -3.22635135   -0.47297297    0.00000000
 C                 -4.76635135   -0.47295399    0.00000000
 H                 -5.12300527    0.53585617    0.00019557
 H                 -5.12302391   -0.97718334   -0.87374908
 H                 -5.12302442   -0.97752164    0.87355355
 C                 -2.71303563   -1.92490512    0.00000000
 H                 -3.06973947   -2.42931427   -0.87363252
 H                 -1.64303563   -1.92491777   -0.00003757
 H                 -3.06967754   -2.42929291    0.87367013
 C                 -2.71300913    0.25298331    1.25740497
 H                 -1.64300913    0.25294711    1.25741791
 H                 -3.06964220    1.26180086    1.25739189
 H                 -3.06970339   -0.25140010    2.13105626
 C                 -2.71300913    0.25298331   -1.25740497
 H                 -3.06967958    1.26178764   -1.25741478
 H                 -3.06966601   -0.25142653   -2.13105626
 C                 -1.17300913    0.25298827   -1.25739066
 H                 -0.81633953   -0.75581636   -1.25734061
 H                 -0.81635202    0.75743259   -0.38375936
 C                 -0.65966691    0.97889504   -2.51482421
 H                 -1.01634311    1.98769735   -2.51487726
 C                  0.88033309    0.97890879   -2.51480483
 H                  1.23700842   -0.02989195   -2.51286203
 H                  1.23700596    1.48163553   -3.38941919
 H                  1.23698445    1.48499236   -1.64211976
 C                 -1.17297788    0.25286665   -3.77220029
 H                 -1.09229544   -0.80474184   -3.63129381
 H                 -2.19699954    0.51307179   -3.94123559
 H                 -0.58628961    0.54582192   -4.61770256

 1 2 1.0 6 1.0 10 1.0 14 1.0
 2 3 1.0 4 1.0 5 1.0
 3
 4
 5
 6 7 1.0 8 1.0 9 1.0
 7
 8
 9
 10 11 1.0 12 1.0 13 1.0
 11
 12
 13
 14 15 1.0 16 1.0 17 1.0
 15
 16
 17 18 1.0 19 1.0 20 1.0
 18
 19
 20 21 1.0 22 1.0 26 1.0
 21
 22 23 1.0 24 1.0 25 1.0
 23
 24
 25
 26 27 1.0 28 1.0 29 1.0
 27
 28
 29

