%chk=E:\hetanjin\GithubFiles\DBGCWebapp\demoForLocal\python\Gjfs\banana_092.chk
# hf/3-21g geom=connectivity

Title Card Required

0 1
 C                 -1.36054424   -0.88435373    0.00000000
 C                 -0.68526993    0.29062357    0.00000000
 C                 -0.59318707   -2.21955520    0.00000000
 H                 -1.29011467   -3.03146156    0.00000189
 H                  0.02185714   -2.27745477   -0.87365225
 H                  0.02185986   -2.27745379    0.87365040
 C                 -1.45262710    1.62582504   -0.00000000
 H                 -0.75569951    2.43773140    0.00000189
 H                 -2.06767131    1.68372461   -0.87365225
 H                 -2.06767403    1.68372364    0.87365040
 C                 -2.90054424   -0.88435373    0.00000000
 C                 -3.41387712   -0.16083040    1.25881029
 H                 -3.79189669    0.80262494    0.98723155
 H                 -4.19572647   -0.73720149    1.70759526
 H                 -2.61067434   -0.04520708    1.95623165
 C                 -3.41387785   -2.33627683   -0.00281537
 H                 -3.05132204   -2.84107359   -0.87381108
 H                 -3.06312481   -2.84028872    0.87345189
 H                 -4.48385343   -2.33627144   -0.01004306
 C                 -3.41387712   -0.15595403   -1.25599492
 H                 -3.70017246    0.84209927   -0.99749040
 H                 -2.63823530   -0.12509503   -1.99242380
 H                 -4.25988982   -0.67877068   -1.65074199
 C                  0.85473007    0.29062357    0.00000000
 C                  1.36806294   -0.43289976    1.25881029
 H                  1.66612023   -1.42787159    1.00172488
 H                  2.20630690    0.09844065    1.65871581
 H                  0.58842785   -0.47197591    1.99061776
 C                  1.36806367    1.74254667   -0.00281537
 H                  2.43803150    1.74254142   -0.01111334
 H                  1.00463756    2.24765218   -0.87326921
 H                  1.01818864    2.24624970    0.87398034
 C                  1.36806294   -0.43777613   -1.25599492
 H                  2.27074073    0.02689496   -1.59386116
 H                  1.56165680   -1.46319989   -1.01950489
 H                  0.62845746   -0.38311914   -2.02729016

 1 2 2.0 3 1.0 11 1.0
 2 7 1.0 24 1.0
 3 4 1.0 5 1.0 6 1.0
 4
 5
 6
 7 8 1.0 9 1.0 10 1.0
 8
 9
 10
 11 12 1.0 16 1.0 20 1.0
 12 13 1.0 14 1.0 15 1.0
 13
 14
 15
 16 17 1.0 18 1.0 19 1.0
 17
 18
 19
 20 21 1.0 22 1.0 23 1.0
 21
 22
 23
 24 25 1.0 29 1.0 33 1.0
 25 26 1.0 27 1.0 28 1.0
 26
 27
 28
 29 30 1.0 31 1.0 32 1.0
 30
 31
 32
 33 34 1.0 35 1.0 36 1.0
 34
 35
 36

