%chk=E:\hetanjin\GithubFiles\DBGCWebapp\demoForLocal\python\Gjfs\banana_003.chk
# hf/3-21g geom=connectivity

Title Card Required

0 1
 C                 -2.55102045    0.74829931    0.00000000
 H                 -2.19436603   -0.26051069    0.00000000
 H                 -2.19434761    1.25269750   -0.87365150
 H                 -3.62102045    0.74831249    0.00000000
 C                 -2.03767823    1.47425558    1.25740497
 H                 -0.96768004    1.47254890    1.25838372
 C                 -2.54869391    2.92699816    1.25599807
 H                 -3.61869169    2.92870433    1.25464312
 H                 -2.19232840    3.43128843    2.12983728
 H                 -2.19011781    3.43037440    0.38253625
 C                 -2.55331789    0.74992531    2.51480761
 H                 -2.19846972   -0.25952110    2.51565648
 H                 -2.19643713    1.25417596    3.38845938
 H                 -3.62331581    0.75185287    2.51395648

 1 2 1.0 3 1.0 4 1.0 5 1.0
 2
 3
 4
 5 6 1.0 7 1.0 11 1.0
 6
 7 8 1.0 9 1.0 10 1.0
 8
 9
 10
 11 12 1.0 13 1.0 14 1.0
 12
 13
 14

