%mem=6GB
%nprocshared=4
#p M062X/def2TZVP

using B3LYP/6-31G(d) to do opt and freq calc.

0 1
C	-3.110366	0.286393	-0.355830
C	-2.199810	-0.548858	0.168215
C	-0.859943	-0.106156	0.726231
C	0.295070	-0.257379	-0.287625
C	1.705291	-0.001199	0.283618
C	2.773568	-0.374603	-0.765971
C	4.219366	-0.365308	-0.255434
H	-0.627081	-0.711736	1.615036
H	0.269501	-1.273674	-0.704225
H	1.840972	-0.673945	1.146524
H	2.544573	-1.377742	-1.152033
H	4.336861	-1.027897	0.611388
H	4.545399	0.636125	0.045767
H	4.909323	-0.712567	-1.033108
C	-3.028852	1.780808	-0.499372
H	-2.103567	2.201659	-0.096302
H	-3.092076	2.075246	-1.556232
H	-3.870366	2.271065	0.009543
H	2.683928	0.307424	-1.624696
C	-2.462357	-2.036536	0.221664
H	-1.673131	-2.605586	-0.288809
H	-2.480720	-2.396517	1.260293
H	-3.417788	-2.298745	-0.244031
H	-4.033670	-0.154372	-0.736065
H	-0.913838	0.931213	1.070215
H	0.115931	0.420818	-1.134573
C	1.871619	1.443899	0.780063
H	1.735344	2.155860	-0.045309
H	1.142519	1.692771	1.558303
H	2.866365	1.614237	1.204955





