%chk=E:\hetanjin\GithubFiles\DBGCWebapp\demoForLocal\python\Gjfs\c12h26_37.chk
# hf/3-21g geom=connectivity

Title Card Required

0 1
 C                 -3.05755391   -1.31894485    0.00000000
 H                 -2.70089949   -2.32775485    0.00000000
 H                 -2.70088107   -0.81454666   -0.87365150
 C                 -2.54421169   -0.59298857    1.25740497
 H                 -2.89926825    0.41638444    1.25642758
 C                 -1.00421430   -0.59544548    1.25881307
 H                 -0.64594596   -0.09250419    0.38497449
 H                 -0.64915842   -1.60481830    1.26016721
 C                 -0.49087108    0.13098032    2.51594643
 H                 -0.84920789   -0.37191329    3.38978438
 H                 -0.84585895    1.14037701    2.51455102
 C                  1.04912609    0.12842014    2.51741431
 H                  1.40746204    0.63130615    1.64357164
 H                  1.40411418   -0.88097646    2.51881828
 C                  1.56246933    0.85485642    3.77454161
 H                  1.20748292    1.86425360    3.77313689
 C                  3.10246650    0.85229403    3.77601076
 H                  3.46080389    1.35518056    2.90216898
 H                  3.45745314   -0.15710308    3.77741384
 C                  3.61580973    1.57872810    5.03313933
 H                  3.25747293    1.07584025    5.90698059
 H                  4.68580777    1.57694926    5.03415922
 H                  3.26082188    2.58812478    5.03173727
 C                 -3.05985113   -1.31731822    2.51480806
 H                 -2.43715840   -2.16295941    2.71985617
 H                 -3.03589642   -0.64636343    3.34796222
 H                 -4.06476743   -1.64589960    2.35025561
 C                  1.04673018    0.13107759    5.03222095
 H                  0.00689965    0.34514613    5.16573919
 H                  1.18172974   -0.92410685    4.91706487
 H                  1.59322309    0.46930843    5.88770058
 C                 -4.59755391   -1.31892587    0.00000000
 H                 -4.95423053   -2.15258276    0.56806511
 H                 -4.95420956   -0.41013223    0.43793934
 C                 -5.11088811   -1.42704756   -1.44789423
 H                 -4.67432075   -2.28333530   -1.91808594
 H                 -6.17613098   -1.52766399   -1.44206629
 H                 -4.83887971   -0.54526682   -1.98953448

 1 2 1.0 3 1.0 4 1.0 32 1.0
 2
 3
 4 5 1.0 6 1.0 24 1.0
 5
 6 7 1.0 8 1.0 9 1.0
 7
 8
 9 10 1.0 11 1.0 12 1.0
 10
 11
 12 13 1.0 14 1.0 15 1.0
 13
 14
 15 16 1.0 17 1.0 28 1.0
 16
 17 18 1.0 19 1.0 20 1.0
 18
 19
 20 21 1.0 22 1.0 23 1.0
 21
 22
 23
 24 25 1.0 26 1.0 27 1.0
 25
 26
 27
 28 29 1.0 30 1.0 31 1.0
 29
 30
 31
 32 33 1.0 34 1.0 35 1.0
 33
 34
 35 36 1.0 37 1.0 38 1.0
 36
 37
 38

