%nprocshared=12
%mem=30GB
# opt freq b3lyp/6-311++g(d,p) geom=connectivity

Title Card Required

0 1
 C                 -0.82006367    0.42993630    0.00000000
 C                  0.68105133    0.42993630    0.00000000
 C                 -0.06953367    1.72991130    0.00000000
 H                 -1.35665967    0.12006130   -0.91385800
 H                 -1.35665967    0.12006130    0.91385800
 H                 -0.06975667    2.34943930   -0.91394400
 C                 -0.06984470    2.59400424    1.27473263
 H                 -0.94374552    3.21129480    1.28696889
 H                 -0.06956204    1.95909255    2.13600325
 H                  0.80355734    3.21200135    1.28691628
 H                  1.20103905    0.12973737    0.88565985
 C                  1.42944487   -0.00212571   -1.27468801
 H                  2.40990338    0.42636100   -1.27518240
 H                  1.50647959   -1.06907859   -1.29871278
 H                  0.89193910    0.33614169   -2.13582837

 1 2 1.0 3 1.0 4 1.0 5 1.0
 2 3 1.0 11 1.0 12 1.0
 3 6 1.0 7 1.0
 4
 5
 6
 7 8 1.0 9 1.0 10 1.0
 8
 9
 10
 11
 12 13 1.0 14 1.0 15 1.0
 13
 14
 15

