%chk=E:\hetanjin\GithubFiles\DBGCWebapp\demoForLocal\python\Gjfs\farnesane.chk
# hf/3-21g geom=connectivity

Title Card Required

0 1
 C                 -2.17026376    0.04796163    0.00000000
 H                 -1.81360933   -0.96084837    0.00000000
 H                 -1.81359092    0.55235982   -0.87365150
 H                 -3.24026376    0.04797481    0.00000000
 C                 -1.65692154    0.77391790    1.25740497
 H                 -2.01197810    1.78329092    1.25642758
 C                 -0.11692414    0.77146100    1.25881307
 H                  0.24134419    1.27440229    0.38497449
 H                  0.23813173   -0.23791182    1.26016721
 C                  0.39641907    1.49788680    2.51594643
 H                  0.03808227    0.99499319    3.38978438
 H                  0.04143121    2.50728349    2.51455102
 C                  1.93641625    1.49532661    2.51741431
 H                  2.29475220    1.99821263    1.64357164
 H                  2.29140434    0.48593002    2.51881828
 C                  2.44975949    2.22176290    3.77454161
 H                  2.09477307    3.23116008    3.77313689
 C                  3.98975665    2.21920051    3.77601076
 H                  4.34809405    2.72208703    2.90216898
 H                  4.34474330    1.20980340    3.77741384
 C                 -2.17256098    0.04958826    2.51480806
 H                 -1.55255268   -0.79864663    2.71726122
 H                 -2.14437303    0.71918925    3.34891834
 H                 -3.17902607   -0.27504564    2.35189444
 C                  1.93402033    1.49798407    5.03222095
 H                  0.93706460    1.82204136    5.24661811
 H                  1.93687239    0.44158606    4.86217648
 H                  2.56978595    1.72743972    5.86171006
 C                  4.50309989    2.94563458    5.03313934
 H                  4.55209222    2.25514293    5.84905664
 H                  3.83548349    3.74414969    5.28125616
 C                  5.90679902    3.51659536    4.75885379
 H                  6.54941356    2.73336854    4.41461217
 H                  5.84180143    4.27917745    4.01109456
 C                  6.47916097    4.11726891    6.05623310
 H                  5.83094301    4.89326568    6.40629381
 C                  7.87647126    4.70201195    5.77838506
 H                  7.80025216    5.47259825    5.03994928
 H                  8.52242844    3.92770062    5.42050060
 C                  6.58716156    3.01634407    7.12763422
 H                  5.64337992    2.90290276    7.61886461
 H                  6.86079596    2.09213138    6.66303212
 H                  7.33234815    3.28907011    7.84542071
 C                  8.45378412    5.29211593    7.07841858
 H                  8.94147854    4.51936258    7.63511096
 H                  9.16017742    6.05930697    6.83898918
 H                  7.66081618    5.70768541    7.66442527

 1 2 1.0 3 1.0 4 1.0 5 1.0
 2
 3
 4
 5 6 1.0 7 1.0 21 1.0
 6
 7 8 1.0 9 1.0 10 1.0
 8
 9
 10 11 1.0 12 1.0 13 1.0
 11
 12
 13 14 1.0 15 1.0 16 1.0
 14
 15
 16 17 1.0 18 1.0 25 1.0
 17
 18 19 1.0 20 1.0 29 1.0
 19
 20
 21 22 1.0 23 1.0 24 1.0
 22
 23
 24
 25 26 1.0 27 1.0 28 1.0
 26
 27
 28
 29 30 1.0 31 1.0 32 1.0
 30
 31
 32 33 1.0 34 1.0 35 1.0
 33
 34
 35 36 1.0 37 1.0 40 1.0
 36
 37 38 1.0 39 1.0 44 1.0
 38
 39
 40 41 1.0 42 1.0 43 1.0
 41
 42
 43
 44 45 1.0 46 1.0 47 1.0
 45
 46
 47

