%chk=E:\hetanjin\GithubFiles\DBGCWebapp\demoForLocal\python\Gjfs\ic3h7coc4h8s.chk
# hf/3-21g geom=connectivity

Title Card Required

0 2
 C                 -0.80262167    0.75448152    2.51594643
 H                 -1.15760954    1.76387821    2.51455102
 C                  0.73737550    0.75192134    2.51741431
 O                  1.37122315    1.43716157    3.36136545
 C                  1.50431732   -0.09211650    1.48252283
 H                  1.34799305    0.47073511    0.58605153
 H                  1.18531552   -1.10197660    1.32981256
 C                  3.67306363   -1.27603376    1.01439397
 H                  3.57374291   -0.93792062    0.00408961
 C                  5.16551985   -1.34827795    1.38716091
 H                  5.64815721   -2.08922365    0.78469875
 H                  5.62248220   -0.39608915    1.21563280
 H                  5.26288604   -1.60971669    2.42015153
 C                  2.95537369   -0.29279661    1.95766798
 H                  3.00284681   -0.71415137    2.94006630
 H                  3.41744762    0.67228261    1.96079436
 C                 -1.31835876    0.03069073    3.77361974
 H                 -0.96153493    0.53530849    4.64708277
 H                 -2.38835660    0.03262927    3.77269080
 H                 -0.96352139   -0.97875899    3.77492321
 C                 -1.31596489    0.02805572    1.25881307
 H                 -2.38276969    0.09903116    1.21650446
 H                 -0.89343909    0.48217427    0.38694824
 H                 -1.02835927   -1.00176253    1.29952409

 1 2 1.0 3 1.0 17 1.0 21 1.0
 2
 3 4 2.0 5 1.0
 4
 5 6 1.0 7 1.0 14 1.0
 6
 7
 8 9 1.0 10 1.0 14 1.0
 9
 10 11 1.0 12 1.0 13 1.0
 11
 12
 13
 14 15 1.0 16 1.0
 15
 16
 17 18 1.0 19 1.0 20 1.0
 18
 19
 20
 21 22 1.0 23 1.0 24 1.0
 22
 23
 24

