%nprocshared=12
%mem=30GB
# opt freq b3lyp/6-311++g(d,p)

Title Card Required

0 1
 C                 -2.46019102    0.66878980    0.00000000
 H                 -1.92702727   -0.25891512    0.00000000
 H                 -3.53019102    0.66878980    0.00000000
 C                 -1.78491671    1.84376710    0.00000000
 H                 -2.31808046    2.77147202    0.00000000
 C                 -0.24491671    1.84376710   -0.00000000
 H                  0.11174964    1.33936561    0.87365225
 H                  0.11175014    1.33936277   -0.87365040
 C                  0.26841616    3.29569318   -0.00000272
 H                 -0.08809134    3.80003760   -0.87375274
 H                 -0.08841013    3.80015413    0.87354988
 C                  1.80841614    3.29569319    0.00027875
 H                  2.16524215    2.79119123   -0.87325028
 H                  2.16508250    4.30449897    0.00022979
 H                  2.16492330    2.79138936    0.87405234

